<?xml version="1.0" encoding="UTF-8"?><osil xmlns="os.optimizationservices.org"   xmlns:xsi="http://www.w3.org/2001/XMLSchema-instance" xsi:schemaLocation="os.optimizationservices.org http://www.optimizationservices.org/schemas/2.0/OSiL.xsd" ><instanceHeader><name>q_20_0_25_4</name></instanceHeader><instanceData><variables numberOfVariables="20"><var name="x1" ub="1"/><var name="x2" ub="1"/><var name="x3" ub="1"/><var name="x4" ub="1"/><var name="x5" ub="1"/><var name="x6" ub="1"/><var name="x7" ub="1"/><var name="x8" ub="1"/><var name="x9" ub="1"/><var name="x10" ub="1"/><var name="x11" ub="1"/><var name="x12" ub="1"/><var name="x13" ub="1"/><var name="x14" ub="1"/><var name="x15" ub="1"/><var name="x16" ub="1"/><var name="x17" ub="1"/><var name="x18" ub="1"/><var name="x19" ub="1"/><var name="x20" ub="1"/></variables><objectives numberOfObjectives="1"><obj maxOrMin="min" name="defObj_x21" numberOfObjCoef="20"><coef idx="0">-.6373</coef><coef idx="1">.6154</coef><coef idx="2">.1051</coef><coef idx="3">-2.83e-2</coef><coef idx="4">7.35e-2</coef><coef idx="5">-.9093</coef><coef idx="6">-.7123</coef><coef idx="7">.5603</coef><coef idx="8">.5412</coef><coef idx="9">-.6809</coef><coef idx="10">-6.21e-2</coef><coef idx="11">-.674</coef><coef idx="12">9.77e-2</coef><coef idx="13">-.3899</coef><coef idx="14">-.6912</coef><coef idx="15">.15</coef><coef idx="16">-.7118</coef><coef idx="17">-.6134</coef><coef idx="18">.3822</coef><coef idx="19">.9004</coef></obj></objectives><quadraticCoefficients  numberOfQuadraticTerms="52" ><qTerm  idx="-1"  idxOne="0"  idxTwo="6"  coef="-.8606"/><qTerm  idx="-1"  idxOne="0"  idxTwo="12"  coef="-1.5214"/><qTerm  idx="-1"  idxOne="0"  idxTwo="17"  coef="-.857"/><qTerm  idx="-1"  idxOne="0"  idxTwo="18"  coef="-3.23e-2"/><qTerm  idx="-1"  idxOne="1"  idxTwo="2"  coef=".6069"/><qTerm  idx="-1"  idxOne="1"  idxTwo="4"  coef="-1.8191"/><qTerm  idx="-1"  idxOne="1"  idxTwo="13"  coef="-1.3141"/><qTerm  idx="-1"  idxOne="1"  idxTwo="14"  coef="-1.9374"/><qTerm  idx="-1"  idxOne="2"  idxTwo="4"  coef="-1.0349"/><qTerm  idx="-1"  idxOne="2"  idxTwo="13"  coef="-1.1847"/><qTerm  idx="-1"  idxOne="2"  idxTwo="17"  coef="-.8833"/><qTerm  idx="-1"  idxOne="3"  idxTwo="9"  coef="1.9375"/><qTerm  idx="-1"  idxOne="3"  idxTwo="10"  coef="-1.4687"/><qTerm  idx="-1"  idxOne="3"  idxTwo="15"  coef=".6241"/><qTerm  idx="-1"  idxOne="3"  idxTwo="16"  coef=".9252"/><qTerm  idx="-1"  idxOne="4"  idxTwo="8"  coef="-1.0431"/><qTerm  idx="-1"  idxOne="4"  idxTwo="12"  coef="1.2732"/><qTerm  idx="-1"  idxOne="4"  idxTwo="14"  coef="1.453"/><qTerm  idx="-1"  idxOne="4"  idxTwo="19"  coef="-1.2694"/><qTerm  idx="-1"  idxOne="5"  idxTwo="6"  coef="1.9347"/><qTerm  idx="-1"  idxOne="5"  idxTwo="7"  coef="1.8614"/><qTerm  idx="-1"  idxOne="5"  idxTwo="9"  coef="-.578"/><qTerm  idx="-1"  idxOne="5"  idxTwo="10"  coef="1.9722"/><qTerm  idx="-1"  idxOne="5"  idxTwo="12"  coef=".8627"/><qTerm  idx="-1"  idxOne="5"  idxTwo="16"  coef="-.8735"/><qTerm  idx="-1"  idxOne="5"  idxTwo="17"  coef="7.66e-2"/><qTerm  idx="-1"  idxOne="6"  idxTwo="6"  coef="-.5563"/><qTerm  idx="-1"  idxOne="6"  idxTwo="12"  coef="-1.78e-2"/><qTerm  idx="-1"  idxOne="6"  idxTwo="17"  coef="-.8027"/><qTerm  idx="-1"  idxOne="7"  idxTwo="13"  coef="-1.2072"/><qTerm  idx="-1"  idxOne="7"  idxTwo="15"  coef="1.0573"/><qTerm  idx="-1"  idxOne="7"  idxTwo="19"  coef="1.5078"/><qTerm  idx="-1"  idxOne="8"  idxTwo="9"  coef="-.4703"/><qTerm  idx="-1"  idxOne="8"  idxTwo="12"  coef="1.3009"/><qTerm  idx="-1"  idxOne="8"  idxTwo="13"  coef="-.5384"/><qTerm  idx="-1"  idxOne="8"  idxTwo="14"  coef="-1.2189"/><qTerm  idx="-1"  idxOne="9"  idxTwo="15"  coef="1.6277"/><qTerm  idx="-1"  idxOne="9"  idxTwo="16"  coef=".8404"/><qTerm  idx="-1"  idxOne="9"  idxTwo="19"  coef="-.8749"/><qTerm  idx="-1"  idxOne="10"  idxTwo="16"  coef=".1494"/><qTerm  idx="-1"  idxOne="10"  idxTwo="19"  coef=".905"/><qTerm  idx="-1"  idxOne="11"  idxTwo="13"  coef="-1.5572"/><qTerm  idx="-1"  idxOne="11"  idxTwo="14"  coef=".7777"/><qTerm  idx="-1"  idxOne="11"  idxTwo="17"  coef="-.4113"/><qTerm  idx="-1"  idxOne="12"  idxTwo="12"  coef="-1.5885"/><qTerm  idx="-1"  idxOne="12"  idxTwo="14"  coef="1.6402"/><qTerm  idx="-1"  idxOne="12"  idxTwo="19"  coef="-.5493"/><qTerm  idx="-1"  idxOne="13"  idxTwo="13"  coef="-1.6398"/><qTerm  idx="-1"  idxOne="14"  idxTwo="14"  coef="-.5732"/><qTerm  idx="-1"  idxOne="15"  idxTwo="19"  coef="1.1426"/><qTerm  idx="-1"  idxOne="16"  idxTwo="17"  coef="-1.6898"/><qTerm  idx="-1"  idxOne="18"  idxTwo="19"  coef="-1.0276"/></quadraticCoefficients></instanceData></osil>
